(set-logic QF_S)
(declare-fun var0 () Int)
(declare-fun var1 () Int)
(declare-fun var2 () String)
(declare-fun var3 () Int)
(declare-fun var4 () String)
(declare-fun var5 () String)
(declare-fun var6 () String)
(declare-fun var7 () Int)
(assert (not (> var0 var1)))
(assert (> (str.len "F(xZa") (str.len var4)))
(assert (str.in.re var5 re.allchar))
(assert (str.suffixof (str.substr var6 var7 var7) (str.substr var6 var1 var1)))
(check-sat)